50

100 8 176
99 9 255
99 28 180
99 7 283
99 1 193
98 23 326
98 9 171
94 8 267
93 14 283
92 25 301
92 9 254
89 1 155
89 8 305
89 27 333
84 8 212
83 1 325
80 15 225
80 18 174
78 7 257
77 2 206
75 9 354
74 3 353
74 9 158
70 0 202
70 9 357
68 15 288
68 1 345
66 20 233
63 13 245
62 10 328
60 6 323
59 8 360
58 12 313
58 15 177
58 16 187
55 6 231
54 13 306
53 12 179
52 1 154
49 9 317
42 5 251
41 0 190
36 2 199
35 2 359
35 1 294
31 3 337
26 3 333
23 4 228
22 0 332
20 3 322
